Version identifier: 22.1.1.0 | 2022-11-28 | 9160aff4d
CPXPARAM_ClockType                               1
CPXPARAM_Read_DataCheck                          1
CPXPARAM_Threads                                 1
CPXPARAM_TimeLimit                               7200
CPXPARAM_MIP_Tolerances_AbsMIPGap                0
CPXPARAM_MIP_Tolerances_MIPGap                   0
CPXPARAM_MIP_Tolerances_Integrality              0
Tried aggregator 4 times.
MIP Presolve eliminated 57827 rows and 2384 columns.
MIP Presolve modified 1312 coefficients.
Aggregator did 968 substitutions.
Reduced MIP has 8693 rows, 2036 columns, and 24482 nonzeros.
Reduced MIP has 2036 binaries, 0 generals, 0 SOSs, and 0 indicators.
Presolve time = 0.09 sec. (74.61 ticks)
Found incumbent of value -3156.000000 after 0.15 sec. (106.66 ticks)
Probing time = 0.01 sec. (7.15 ticks)
Tried aggregator 1 time.
Detecting symmetries...
MIP Presolve eliminated 8 rows and 1 columns.
MIP Presolve modified 12 coefficients.
Reduced MIP has 8685 rows, 2035 columns, and 24461 nonzeros.
Reduced MIP has 2035 binaries, 0 generals, 0 SOSs, and 0 indicators.
Presolve time = 0.05 sec. (26.50 ticks)
Probing time = 0.01 sec. (5.38 ticks)
Clique table members: 5749.
MIP emphasis: balance optimality and feasibility.
MIP search method: dynamic search.
Parallel mode: none, using 1 thread.
Root relaxation solution time = 0.37 sec. (209.28 ticks)

        Nodes                                         Cuts/
   Node  Left     Objective  IInf  Best Integer    Best Bound    ItCnt     Gap

*     0+    0                        -3156.0000     1904.0000           160.33%
      0     0      916.0000  1018    -3156.0000      916.0000     2907  129.02%
*     0+    0                          548.0000      916.0000            67.15%
      0     0      821.5000   734      548.0000     Cuts: 623     5839   49.91%
*     0+    0                          758.0000      821.5000             8.38%
      0     0      816.6667   497      758.0000     Cuts: 410     7831    7.74%
      0     0      816.0000   603      758.0000     Cuts: 112     8433    7.65%
*     0+    0                          770.0000      816.0000             5.97%
      0     0        cutoff            770.0000      816.0000     8433    5.97%
      0     0      816.0000   525      770.0000     Cuts: 182     9320    5.97%
*     0+    0                          788.0000      816.0000             3.55%
      0     0      816.0000   507      788.0000 ZeroHalf: 102     9788    3.55%
Detecting symmetries...
      0     0      816.0000   516      788.0000 ZeroHalf: 142    10119    3.55%
*     0+    0                          792.0000      816.0000             3.03%
*     0+    0                          796.0000      816.0000             2.51%
      0     0        cutoff            796.0000      816.0000    10119    2.51%
      0     0      816.0000   489      796.0000   ZeroHalf: 8    10831    2.51%
      0     0      815.9821   783      796.0000 ZeroHalf: 183    11704    2.51%
Detecting symmetries...
      0     2      815.9821   735      796.0000      815.9821    11704    2.51%
Elapsed time = 8.00 sec. (6127.86 ticks, tree = 0.01 MB, solutions = 7)
      2     4      815.9298   685      796.0000      815.9821    13043    2.51%
      4     6      814.6667   628      796.0000      815.9821    15517    2.51%
      5     7      813.4000   627      796.0000      815.9821    19118    2.51%
      6     8      814.0000   506      796.0000      815.9821    22296    2.51%
      8    10      814.0000   521      796.0000      815.9821    23694    2.51%
      9    11      813.9286   624      796.0000      815.9821    25034    2.51%
     15    17      814.0000   456      796.0000      815.9821    25807    2.51%
     18    20      813.7500   582      796.0000      815.9821    27873    2.51%
     25    27      813.3333   390      796.0000      815.9821    28762    2.51%
     29    31      810.3333   435      796.0000      815.9821    33578    2.51%
Elapsed time = 16.10 sec. (12426.20 ticks, tree = 0.81 MB, solutions = 7)
     33    35      809.0000   523      796.0000      815.9821    34974    2.51%
     39    41      811.7500   492      796.0000      815.9821    38044    2.51%
     41    43      808.0000   554      796.0000      815.9821    41876    2.51%
     44    44        cutoff            796.0000      815.9821    46621    2.51%
     54    52      800.9583   331      796.0000      815.9821    49857    2.51%
     68    60      814.3333   338      796.0000      815.9298    53496    2.50%
     83    75      813.8923   585      796.0000      815.9298    56752    2.50%
*    90+   77                          798.0000      815.9298             2.25%
     90    79      813.0000   379      798.0000      815.9298    58891    2.25%
    111   100      809.1250   629      798.0000      815.9298    62482    2.25%
    133   120      803.5975   472      798.0000      815.9298    65718    2.25%
Elapsed time = 28.86 sec. (23108.89 ticks, tree = 6.26 MB, solutions = 8)
    158   141      812.0000   677      798.0000      815.8750    69225    2.24%
    185   164      812.6667   232      798.0000      815.8554    73120    2.24%
*   190+  135                          804.0000      815.8554             1.47%
    219   162      811.0000   180      804.0000      815.7436    76464    1.46%
*   230+  161                          806.0000      815.7436             1.21%
    241   170      811.6667   636      806.0000      815.6667    81064    1.20%
    277   200      814.5714   544      806.0000      815.5556    84543    1.19%
    297   214      814.0000   407      806.0000      815.5385    87022    1.18%
    308   225      811.5000   214      806.0000      815.5385    89056    1.18%
    330   239      812.5000   578      806.0000      815.5000    92466    1.18%
    347   252      814.0000   522      806.0000      815.4000    95899    1.17%
    353   258      813.2814   613      806.0000      815.4000    97775    1.17%
Elapsed time = 40.72 sec. (33705.77 ticks, tree = 13.51 MB, solutions = 10)
    364   269      814.0000   469      806.0000      815.4000   100797    1.17%
    377   282      808.1053   496      806.0000      815.4000   105034    1.17%
    394   289      813.5556   681      806.0000      815.2222   108660    1.14%
    402   293      809.4167   621      806.0000      815.1442   112756    1.13%
    426   306      810.0000   544      806.0000      815.0000   116375    1.12%
    446   316      812.0000   498      806.0000      815.0000   120110    1.12%
    458   325      811.8333   565      806.0000      814.7778   124036    1.09%
    475   336      809.7879   627      806.0000      814.7000   127307    1.08%
*   480+  259                          808.0000      814.7000             0.83%
    490   267      811.0540   610      808.0000      814.6667   130434    0.83%
    506   271      811.3438   550      808.0000      814.5208   134151    0.81%
Elapsed time = 51.59 sec. (43877.62 ticks, tree = 15.35 MB, solutions = 11)
    524   283      813.3651   659      808.0000      814.3982   137451    0.79%
    541   294        cutoff            808.0000      814.3501   140342    0.79%
    548   295      813.3333   614      808.0000      814.2714   143769    0.78%
    572   305      810.8333   629      808.0000      814.1500   147665    0.76%
    598   319      813.7664   463      808.0000      814.0179   150538    0.74%
    629   334      813.7895   512      808.0000      814.0000   154063    0.74%
    647   346      810.8696   622      808.0000      814.0000   157661    0.74%
    668   359      811.8717   638      808.0000      814.0000   160865    0.74%
    689   374      810.0000   204      808.0000      814.0000   163993    0.74%
    725   396      812.2153   687      808.0000      814.0000   167981    0.74%
Elapsed time = 62.23 sec. (53946.25 ticks, tree = 23.70 MB, solutions = 11)
    756   410        cutoff            808.0000      814.0000   171668    0.74%
    778   422      813.0000   370      808.0000      814.0000   175126    0.74%
    807   444      812.0000   375      808.0000      814.0000   178489    0.74%
    847   477      813.3846   653      808.0000      814.0000   181487    0.74%
    865   487      812.5000   258      808.0000      814.0000   184969    0.74%
    891   506      810.5000   364      808.0000      814.0000   188689    0.74%

Performing restart 1

Repeating presolve.
Tried aggregator 2 times.
MIP Presolve eliminated 67 rows and 215 columns.
MIP Presolve modified 3 coefficients.
Aggregator did 1 substitutions.
Reduced MIP has 8617 rows, 1819 columns, and 24043 nonzeros.
Reduced MIP has 1819 binaries, 0 generals, 0 SOSs, and 0 indicators.
Presolve time = 0.05 sec. (33.45 ticks)
Tried aggregator 1 time.
MIP Presolve eliminated 1 rows and 1 columns.
Reduced MIP has 8616 rows, 1818 columns, and 24040 nonzeros.
Reduced MIP has 1818 binaries, 0 generals, 0 SOSs, and 0 indicators.
Presolve time = 0.03 sec. (18.09 ticks)
Represolve time = 0.15 sec. (88.01 ticks)
    908     0      814.0000   606      808.0000      Cuts: 36   199153    0.74%
    908     0      814.0000   639      808.0000      Cuts: 65   199521    0.74%
    908     0      814.0000   493      808.0000   ZeroHalf: 8   199831    0.74%
    908     0      814.0000   473      808.0000     Cuts: 151   200213    0.74%
    908     0      814.0000   618      808.0000      Cuts: 90   200854    0.74%
    908     0      814.0000   674      808.0000   ZeroHalf: 7   201115    0.74%
    908     0      814.0000   557      808.0000      Cuts: 21   201306    0.74%
    908     0      814.0000   629      808.0000     Cuts: 148   201938    0.74%
*   908+    0                          810.0000      814.0000             0.49%
    908     0        cutoff            810.0000      814.0000   201938    0.49%
    908     2      814.0000   597      810.0000      814.0000   201938    0.49%
    909     3      814.0000   359      810.0000      814.0000   203083    0.49%
    910     4      814.0000   230      810.0000      814.0000   204179    0.49%
    911     5      814.0000   357      810.0000      814.0000   205719    0.49%
Elapsed time = 103.66 sec. (89213.52 ticks, tree = 0.01 MB, solutions = 12)
    912     6      814.0000   329      810.0000      814.0000   205792    0.49%
    913     7      814.0000   329      810.0000      814.0000   205907    0.49%
    914     8      814.0000   264      810.0000      814.0000   205915    0.49%
    918    12      814.0000   324      810.0000      814.0000   206503    0.49%
    919    13      814.0000   360      810.0000      814.0000   207170    0.49%
    920    14      813.8571   553      810.0000      814.0000   209977    0.49%
    921    14      813.7500   571      810.0000      814.0000   210424    0.49%
    923    14      813.5000   520      810.0000      814.0000   211562    0.49%
    926    15      813.3333   265      810.0000      814.0000   212509    0.49%
    932    15      814.0000   335      810.0000      814.0000   213333    0.49%
Elapsed time = 133.28 sec. (115173.38 ticks, tree = 0.51 MB, solutions = 12)
    939    22      814.0000   363      810.0000      814.0000   216377    0.49%
    940    22      813.7500   551      810.0000      814.0000   216670    0.49%
    943    24      813.3333   472      810.0000      814.0000   216915    0.49%
    957    30      814.0000   305      810.0000      814.0000   217426    0.49%
    960    32      813.7500   538      810.0000      814.0000   218459    0.49%
    976    41      814.0000   325      810.0000      814.0000   219669    0.49%
    980    42      813.0000   438      810.0000      814.0000   220197    0.49%
    993    50      814.0000   367      810.0000      814.0000   221385    0.49%
   1012    63      814.0000   414      810.0000      814.0000   222892    0.49%
   1022    69      812.5000   237      810.0000      814.0000   224663    0.49%
Elapsed time = 149.21 sec. (127866.82 ticks, tree = 2.92 MB, solutions = 12)
   1030    70      812.0000   168      810.0000      814.0000   226568    0.49%
   1037    69      814.0000   346      810.0000      814.0000   228216    0.49%
   1048    74      814.0000   374      810.0000      814.0000   230590    0.49%
   1063    82      813.8000   469      810.0000      814.0000   233034    0.49%
   1067    85      813.2857   507      810.0000      814.0000   233653    0.49%
   1073    87      813.8333   562      810.0000      814.0000   235228    0.49%
   1086    94      814.0000   305      810.0000      814.0000   236716    0.49%
   1089    96      813.0714   625      810.0000      814.0000   239505    0.49%
   1101    99        cutoff            810.0000      814.0000   242435    0.49%
   1106   103      812.6970   498      810.0000      814.0000   243954    0.49%
Elapsed time = 161.71 sec. (139365.85 ticks, tree = 4.62 MB, solutions = 12)
   1114   103      813.6000   478      810.0000      814.0000   246588    0.49%
   1134   115      812.5000   303      810.0000      814.0000   249553    0.49%
   1148   121      814.0000   409      810.0000      814.0000   251956    0.49%
   1165   130        cutoff            810.0000      814.0000   254523    0.49%
   1175   136      813.0000   234      810.0000      814.0000   256544    0.49%
   1183   136      813.2941   535      810.0000      814.0000   260474    0.49%
   1188   137      814.0000   557      810.0000      814.0000   263286    0.49%
   1203   147      813.6279   667      810.0000      814.0000   266202    0.49%
   1217   156      813.9365   575      810.0000      814.0000   268185    0.49%
   1245   165      813.5000   551      810.0000      814.0000   276024    0.49%
Elapsed time = 177.19 sec. (153395.46 ticks, tree = 9.23 MB, solutions = 12)
   1289   182      813.7004   648      810.0000      814.0000   284050    0.49%
   1339   204      813.1212   561      810.0000      814.0000   294782    0.49%
   1371   213      812.9810   624      810.0000      814.0000   305339    0.49%
   1406   220      814.0000   591      810.0000      814.0000   315673    0.49%
   1428   228      814.0000   706      810.0000      814.0000   324407    0.49%
   1447   232        cutoff            810.0000      814.0000   336825    0.49%
   1492   239        cutoff            810.0000      813.8182   347433    0.47%
   1555   231      813.4091   538      810.0000      813.6667   359922    0.45%
   1620   210      812.5968   522      810.0000      813.5000   375384    0.43%
   1717   179        cutoff            810.0000      813.0152   389727    0.37%
Elapsed time = 224.51 sec. (195224.39 ticks, tree = 11.27 MB, solutions = 12)
   1854    54        cutoff            810.0000      812.0000   404581    0.25%

GUB cover cuts applied:  1
Clique cuts applied:  54
Cover cuts applied:  1
Implied bound cuts applied:  13
Zero-half cuts applied:  221
Lift and project cuts applied:  4
Gomory fractional cuts applied:  17

Root node processing (before b&c):
  Real time             =    7.99 sec. (6117.37 ticks)
Sequential b&c:
  Real time             =  224.49 sec. (195447.19 ticks)
                          ------------
Total (root+branch&cut) =  232.48 sec. (201564.56 ticks)
Solution is feasible.

---------------------
@@@ MIP_optimal
>>> Benchmark mc2024_track1_185.cnf k 5 OPT 810 TimeCost 241.45155382156372 TimeSolve 233.34641671180725 TimeRead 0.019454479217529297 TimeTrans 8.08568263053894
